11 11
7
3 3 5 4
3 4 5 7
3 5 8 0
3 6 8 5
5 3 0 4
5 4 0 7
8 4 0 0
% time elapsed: 0.10 s
% time elapsed: 0.10 s
%%%mzn-stat: initTime=0.000289
%%%mzn-stat: solveTime=0.000916
%%%mzn-stat: solutions=14
%%%mzn-stat: variables=15
%%%mzn-stat: propagators=12
%%%mzn-stat: propagations=1932
%%%mzn-stat: nodes=299
%%%mzn-stat: failures=51
%%%mzn-stat: restarts=15
%%%mzn-stat: peakDepth=15
%%%mzn-stat-end
